NAME : random_15
COMMENT : 45 random nodes
TYPE : TSP
DIMENSION : 45
EDGE_WEIGHT_TYPE : EUC_2D
NODE_COORD_SECTION
1 -511 -5805
2 -5358 -3575
3 -5599 4551
4 1223 2139
5 -3660 -404
6 89 -5116
7 5428 2506
8 4593 -3273
9 -686 -5576
10 -3557 -57
11 2363 6432
12 -1430 -1023
13 4767 1674
14 6617 6537
15 7212 -2548
16 -2017 344
17 -213 -5278
18 -1188 -3882
19 -1680 7318
20 -5017 1027
21 -2301 1407
22 109 6891
23 6239 6457
24 4197 -4349
25 -3972 -3135
26 4105 245
27 -1319 -4793
28 3309 -3154
29 3128 -3507
30 -4242 361
31 3911 -3203
32 5576 -2214
33 3963 3441
34 6300 4580
35 1686 1465
36 4901 1050
37 1413 -1574
38 -5361 1646
39 -1685 6310
40 4149 3017
41 -349 -302
42 5790 6964
43 3612 -6207
44 5637 686
45 1204 4532
EOF